(set-logic SLIA)
(define-fun func0  ((A String) (B String) (C String) (D String) (E String) ) String (str.replace (str.replace C  D  E ) A  B ))
(define-fun func1  ((A String) (B String) (C String) (D String) ) String (str.replace A  B  (str.++ C  D )))
(define-fun func2  ((A String) (B String) (C String) ) String (str.++ A  (str.++ B  C )))
(define-fun func3  ((A String) (B String) (C String) (D String) ) String (str.++ A  (str.++ B  (str.++ C  D ))))
(define-fun func4  ((A String) (B String) (C String) (D Int) ) String (str.++ A  (str.++ (str.at C  D ) B )))
(define-fun func5  ((A String) (B String) (C Int) ) String (str.++ (str.at B  C ) A ))
(define-fun func6  ((A String) (B String) ) String (str.++ (str.at B  0 ) A ))
(define-fun func7  ((A String) (B Int) (C String) (D String) (E String) ) String (str.++ (str.at A  B ) (str.++ C  (str.++ D  E ))))
(define-fun func8  ((A String) (B String) (C String) (D String) (E Int) ) String (str.++ A  (str.++ B  (str.++ (str.at D  E ) C ))))
(define-fun func9  ((A String) (B String) (C Int) ) Int (+ 1  (str.indexof A  B  C )))
(define-fun func10  ((A String) (B String) ) Int (+ 1  (str.indexof A  B  0 )))
(define-fun func11  ((A Int) (B String) (C String) (D Int) ) Int (+ A  (str.indexof B  C  D )))
(define-fun func12  ((A Int) (B String) (C String) ) Int (+ A  (str.indexof B  C  1 )))
(define-fun func13  ((A Int) (B String) (C String) ) Int (+ A  (str.indexof B  C  0 )))
(define-fun func14  ((A Int) (B String) ) Int (- (str.len B ) A ))
(define-fun func15  ((A String) ) Int (- (str.len A ) 3 ))
(define-fun func16  ((A Int) ) Int (- A  3 ))
(define-fun func17  ((A String) (B Int) (C String) (D Int) ) String (str.substr A  (+ 1  (str.indexof A  C  D )) B ))
(define-fun func18  ((A String) (B Int) (C String) ) String (str.substr A  (+ 1  (str.indexof A  C  0 )) B ))
(define-fun func19  ((A String) (B Int) (C String) (D String) (E Int) ) String (str.substr A  (+ 1  (str.indexof C  D  E )) B ))
(define-fun func20  ((A String) (B Int) (C String) (D String) ) String (str.substr A  (+ 1  (str.indexof C  D  0 )) B ))
(define-fun func21  ((A String) (B Int) (C Int) ) String (str.substr A  (+ 1  C ) B ))
(define-fun func22  ((A String) (B Int) (C Int) (D String) (E Int) ) String (str.substr A  (+ C  (str.indexof A  D  E )) B ))
(define-fun func23  ((A String) (B Int) (C Int) (D String) ) String (str.substr A  (+ C  (str.indexof A  D  0 )) B ))
(define-fun func24  ((A String) (B Int) (C Int) (D String) (E String) (F Int) ) String (str.substr A  (+ C  (str.indexof D  E  F )) B ))
(define-fun func25  ((A String) (B Int) (C Int) (D String) (E String) ) String (str.substr A  (+ C  (str.indexof D  E  0 )) B ))
(define-fun func26  ((A String) (B Int) (C Int) (D Int) ) String (str.substr A  (+ C  D ) B ))
(define-fun func27  ((A String) (B Int) (C Int) ) String (str.substr A  (+ B  C ) 3 ))
(define-fun func28  ((A String) (B Int) (C Int) ) String (str.substr A  (+ B  C ) (str.len A )))
(define-fun func29  ((A String) (B Int) ) String (str.substr A  0  B ))
(define-fun func30  ((A String) (B String) (C Int) ) String (str.substr A  0  (str.indexof A  B  C )))
(define-fun func31  ((A String) (B String) ) String (str.substr A  0  (str.indexof A  B  0 )))
(define-fun func32  ((A String) (B String) (C String) (D Int) ) String (str.substr A  0  (str.indexof B  C  D )))
(define-fun func33  ((A String) (B String) (C String) ) String (str.substr A  0  (str.indexof B  C  0 )))
(define-fun func34  ((A String) (B Int) (C Int) (D Int) ) String (str.substr A  B  (+ C  D )))
(define-fun func35  ((A String) (B Int) (C Int) (D Int) ) String (str.substr A  B  (- C  D )))
(define-fun func36  ((A String) (B Int) ) String (str.substr A  B  3 ))
(define-fun func37  ((A String) (B Int) ) String (str.substr A  B  (str.len A )))
(define-fun func38  ((A String) (B Int) (C String) (D Int) ) String (str.substr A  B  (str.indexof A  C  D )))
(define-fun func39  ((A String) (B Int) (C String) ) String (str.substr A  B  (str.indexof A  C  0 )))
(define-fun func40  ((A String) (B Int) (C String) (D String) (E Int) ) String (str.substr A  B  (str.indexof C  D  E )))
(define-fun func41  ((A String) (B Int) (C String) (D String) ) String (str.substr A  B  (str.indexof C  D  0 )))
(define-fun func42  ((A String) (B Int) (C Int) (D String) ) String (str.substr A  (+ B  C ) (str.len D )))
(define-fun func43  ((A String) (B String) (C String) ) String (str.substr A  0  (str.indexof B  C  1 )))
(define-fun func44  ((A String) (B Int) (C String) ) String (str.substr A  B  (str.len C )))
(define-fun func45  ((A String) (B Int) (C String) (D String) ) String (str.substr A  B  (str.indexof C  D  1 )))
(define-fun func46  ((A String) (B String) ) Bool (str.contains A  B ))
(define-fun func47  ((A String) (B String) ) Int (str.indexof A  B  1 ))
(define-fun func48  ((A String) (B String) ) Int (str.indexof A  B  0 ))
(define-fun func49  ((A String) ) String (str.at A  0 ))
(synth-fun f ((name String)) String
( (Start String (ntString))
 (ntString String (
	name " " 
	(func0 ntString ntString ntString ntString ntString)
	(func1 ntString ntString ntString ntString)
	(func2 ntString ntString ntString)
	(func3 ntString ntString ntString ntString)
	(func4 ntString ntString ntString ntInt)
	(func6 ntString ntString)
	(func8 ntString ntString ntString ntString ntInt)
	(func17 ntString ntInt ntString ntInt)
	(func23 ntString ntInt ntInt ntString)
	(func24 ntString ntInt ntInt ntString ntString ntInt)
	(func28 ntString ntInt ntInt)
	(func29 ntString ntInt)
	(func31 ntString ntString)
	(func34 ntString ntInt ntInt ntInt)
	(func36 ntString ntInt)
	(func37 ntString ntInt)
	(func38 ntString ntInt ntString ntInt)
	(func39 ntString ntInt ntString)
	(func49 ntString)
	(str.++ ntString ntString)
	(str.replace ntString ntString ntString)
	(str.at ntString ntInt)
	(int.to.str ntInt)
	(ite ntBool ntString ntString)
))
 (ntInt Int (
	0 1 2 3 4 5 
	(func10 ntString ntString)
	(func11 ntInt ntString ntString ntInt)
	(func13 ntInt ntString ntString)
	(func14 ntInt ntString)
	(func15 ntString)
	(func16 ntInt)
	(func47 ntString ntString)
	(+ ntInt ntInt)
	(- ntInt ntInt)
	(str.len ntString)
	(str.to.int ntString)
	(ite ntBool ntInt ntInt)
	(str.indexof ntString ntString ntInt)
))
 (ntBool Bool (
	true false
	(= ntInt ntInt)
	(str.prefixof ntString ntString)
	(str.suffixof ntString ntString)
	(str.contains ntString ntString)
))
))
(constraint (= (f "938-242-504") "242"))
(constraint (= (f "938-242-504") "242"))
(constraint (= (f "938-242-504") "242"))
(constraint (= (f "308-916-545") "916"))
(constraint (= (f "308-916-545") "916"))
(constraint (= (f "308-916-545") "916"))
(constraint (= (f "623-599-749") "599"))
(constraint (= (f "623-599-749") "599"))
(constraint (= (f "623-599-749") "599"))
(constraint (= (f "981-424-843") "424"))
(constraint (= (f "981-424-843") "424"))
(constraint (= (f "981-424-843") "424"))
(constraint (= (f "118-980-214") "980"))
(constraint (= (f "118-980-214") "980"))
(constraint (= (f "118-980-214") "980"))
(constraint (= (f "244-655-094") "655"))
(constraint (= (f "244-655-094") "655"))
(constraint (= (f "244-655-094") "655"))
(constraint (= (f "830-941-991") "941"))
(constraint (= (f "830-941-991") "941"))
(constraint (= (f "830-941-991") "941"))
(constraint (= (f "911-186-562") "186"))
(constraint (= (f "911-186-562") "186"))
(constraint (= (f "911-186-562") "186"))
(constraint (= (f "002-500-200") "500"))
(constraint (= (f "002-500-200") "500"))
(constraint (= (f "002-500-200") "500"))
(constraint (= (f "113-860-034") "860"))
(constraint (= (f "113-860-034") "860"))
(constraint (= (f "113-860-034") "860"))
(constraint (= (f "457-622-959") "622"))
(constraint (= (f "457-622-959") "622"))
(constraint (= (f "457-622-959") "622"))
(constraint (= (f "986-722-311") "722"))
(constraint (= (f "986-722-311") "722"))
(constraint (= (f "986-722-311") "722"))
(constraint (= (f "110-170-771") "170"))
(constraint (= (f "110-170-771") "170"))
(constraint (= (f "110-170-771") "170"))
(constraint (= (f "469-610-118") "610"))
(constraint (= (f "469-610-118") "610"))
(constraint (= (f "469-610-118") "610"))
(constraint (= (f "817-925-247") "925"))
(constraint (= (f "817-925-247") "925"))
(constraint (= (f "817-925-247") "925"))
(constraint (= (f "256-899-439") "899"))
(constraint (= (f "256-899-439") "899"))
(constraint (= (f "256-899-439") "899"))
(constraint (= (f "886-911-726") "911"))
(constraint (= (f "886-911-726") "911"))
(constraint (= (f "886-911-726") "911"))
(constraint (= (f "562-950-358") "950"))
(constraint (= (f "562-950-358") "950"))
(constraint (= (f "562-950-358") "950"))
(constraint (= (f "693-049-588") "049"))
(constraint (= (f "693-049-588") "049"))
(constraint (= (f "693-049-588") "049"))
(constraint (= (f "840-503-234") "503"))
(constraint (= (f "840-503-234") "503"))
(constraint (= (f "840-503-234") "503"))
(constraint (= (f "698-815-340") "815"))
(constraint (= (f "698-815-340") "815"))
(constraint (= (f "698-815-340") "815"))
(constraint (= (f "498-808-434") "808"))
(constraint (= (f "498-808-434") "808"))
(constraint (= (f "498-808-434") "808"))
(constraint (= (f "329-545-000") "545"))
(constraint (= (f "329-545-000") "545"))
(constraint (= (f "329-545-000") "545"))
(constraint (= (f "380-281-597") "281"))
(constraint (= (f "380-281-597") "281"))
(constraint (= (f "380-281-597") "281"))
(constraint (= (f "332-395-493") "395"))
(constraint (= (f "332-395-493") "395"))
(constraint (= (f "332-395-493") "395"))
(constraint (= (f "251-903-028") "903"))
(constraint (= (f "251-903-028") "903"))
(constraint (= (f "251-903-028") "903"))
(constraint (= (f "176-090-894") "090"))
(constraint (= (f "176-090-894") "090"))
(constraint (= (f "176-090-894") "090"))
(constraint (= (f "336-611-100") "611"))
(constraint (= (f "336-611-100") "611"))
(constraint (= (f "336-611-100") "611"))
(constraint (= (f "416-390-647") "390"))
(constraint (= (f "416-390-647") "390"))
(constraint (= (f "416-390-647") "390"))
(constraint (= (f "019-430-596") "430"))
(constraint (= (f "019-430-596") "430"))
(constraint (= (f "019-430-596") "430"))
(constraint (= (f "960-659-771") "659"))
(constraint (= (f "960-659-771") "659"))
(constraint (= (f "960-659-771") "659"))
(constraint (= (f "475-505-007") "505"))
(constraint (= (f "475-505-007") "505"))
(constraint (= (f "475-505-007") "505"))
(constraint (= (f "424-069-886") "069"))
(constraint (= (f "424-069-886") "069"))
(constraint (= (f "424-069-886") "069"))
(constraint (= (f "941-102-117") "102"))
(constraint (= (f "941-102-117") "102"))
(constraint (= (f "941-102-117") "102"))
(constraint (= (f "331-728-008") "728"))
(constraint (= (f "331-728-008") "728"))
(constraint (= (f "331-728-008") "728"))
(constraint (= (f "487-726-198") "726"))
(constraint (= (f "487-726-198") "726"))
(constraint (= (f "487-726-198") "726"))
(constraint (= (f "612-419-942") "419"))
(constraint (= (f "612-419-942") "419"))
(constraint (= (f "612-419-942") "419"))
(constraint (= (f "594-741-346") "741"))
(constraint (= (f "594-741-346") "741"))
(constraint (= (f "594-741-346") "741"))
(constraint (= (f "320-984-742") "984"))
(constraint (= (f "320-984-742") "984"))
(constraint (= (f "320-984-742") "984"))
(constraint (= (f "060-919-361") "919"))
(constraint (= (f "060-919-361") "919"))
(constraint (= (f "060-919-361") "919"))
(constraint (= (f "275-536-998") "536"))
(constraint (= (f "275-536-998") "536"))
(constraint (= (f "275-536-998") "536"))
(constraint (= (f "548-835-065") "835"))
(constraint (= (f "548-835-065") "835"))
(constraint (= (f "548-835-065") "835"))
(constraint (= (f "197-485-507") "485"))
(constraint (= (f "197-485-507") "485"))
(constraint (= (f "197-485-507") "485"))
(constraint (= (f "455-776-949") "776"))
(constraint (= (f "455-776-949") "776"))
(constraint (= (f "455-776-949") "776"))
(constraint (= (f "085-421-340") "421"))
(constraint (= (f "085-421-340") "421"))
(constraint (= (f "085-421-340") "421"))
(constraint (= (f "785-713-099") "713"))
(constraint (= (f "785-713-099") "713"))
(constraint (= (f "785-713-099") "713"))
(constraint (= (f "426-712-861") "712"))
(constraint (= (f "426-712-861") "712"))
(constraint (= (f "426-712-861") "712"))
(constraint (= (f "386-994-906") "994"))
(constraint (= (f "386-994-906") "994"))
(constraint (= (f "386-994-906") "994"))
(constraint (= (f "918-304-840") "304"))
(constraint (= (f "918-304-840") "304"))
(constraint (= (f "918-304-840") "304"))
(constraint (= (f "247-153-598") "153"))
(constraint (= (f "247-153-598") "153"))
(constraint (= (f "247-153-598") "153"))
(constraint (= (f "075-497-069") "497"))
(constraint (= (f "075-497-069") "497"))
(constraint (= (f "075-497-069") "497"))
(constraint (= (f "140-726-583") "726"))
(constraint (= (f "140-726-583") "726"))
(constraint (= (f "140-726-583") "726"))
(constraint (= (f "049-413-248") "413"))
(constraint (= (f "049-413-248") "413"))
(constraint (= (f "049-413-248") "413"))
(constraint (= (f "977-386-462") "386"))
(constraint (= (f "977-386-462") "386"))
(constraint (= (f "977-386-462") "386"))
(constraint (= (f "058-272-455") "272"))
(constraint (= (f "058-272-455") "272"))
(constraint (= (f "058-272-455") "272"))
(constraint (= (f "428-629-927") "629"))
(constraint (= (f "428-629-927") "629"))
(constraint (= (f "428-629-927") "629"))
(constraint (= (f "449-122-191") "122"))
(constraint (= (f "449-122-191") "122"))
(constraint (= (f "449-122-191") "122"))
(constraint (= (f "568-759-670") "759"))
(constraint (= (f "568-759-670") "759"))
(constraint (= (f "568-759-670") "759"))
(constraint (= (f "312-846-053") "846"))
(constraint (= (f "312-846-053") "846"))
(constraint (= (f "312-846-053") "846"))
(constraint (= (f "943-037-297") "037"))
(constraint (= (f "943-037-297") "037"))
(constraint (= (f "943-037-297") "037"))
(constraint (= (f "014-270-177") "270"))
(constraint (= (f "014-270-177") "270"))
(constraint (= (f "014-270-177") "270"))
(constraint (= (f "658-877-878") "877"))
(constraint (= (f "658-877-878") "877"))
(constraint (= (f "658-877-878") "877"))
(constraint (= (f "888-594-038") "594"))
(constraint (= (f "888-594-038") "594"))
(constraint (= (f "888-594-038") "594"))
(constraint (= (f "232-253-254") "253"))
(constraint (= (f "232-253-254") "253"))
(constraint (= (f "232-253-254") "253"))
(constraint (= (f "308-722-292") "722"))
(constraint (= (f "308-722-292") "722"))
(constraint (= (f "308-722-292") "722"))
(constraint (= (f "342-145-742") "145"))
(constraint (= (f "342-145-742") "145"))
(constraint (= (f "342-145-742") "145"))
(constraint (= (f "568-181-515") "181"))
(constraint (= (f "568-181-515") "181"))
(constraint (= (f "568-181-515") "181"))
(constraint (= (f "300-140-756") "140"))
(constraint (= (f "300-140-756") "140"))
(constraint (= (f "300-140-756") "140"))
(constraint (= (f "099-684-216") "684"))
(constraint (= (f "099-684-216") "684"))
(constraint (= (f "099-684-216") "684"))
(constraint (= (f "575-296-621") "296"))
(constraint (= (f "575-296-621") "296"))
(constraint (= (f "575-296-621") "296"))
(constraint (= (f "994-443-794") "443"))
(constraint (= (f "994-443-794") "443"))
(constraint (= (f "994-443-794") "443"))
(constraint (= (f "400-334-692") "334"))
(constraint (= (f "400-334-692") "334"))
(constraint (= (f "400-334-692") "334"))
(constraint (= (f "684-711-883") "711"))
(constraint (= (f "684-711-883") "711"))
(constraint (= (f "684-711-883") "711"))
(constraint (= (f "539-636-358") "636"))
(constraint (= (f "539-636-358") "636"))
(constraint (= (f "539-636-358") "636"))
(constraint (= (f "009-878-919") "878"))
(constraint (= (f "009-878-919") "878"))
(constraint (= (f "009-878-919") "878"))
(constraint (= (f "919-545-701") "545"))
(constraint (= (f "919-545-701") "545"))
(constraint (= (f "919-545-701") "545"))
(constraint (= (f "546-399-239") "399"))
(constraint (= (f "546-399-239") "399"))
(constraint (= (f "546-399-239") "399"))
(constraint (= (f "993-608-757") "608"))
(constraint (= (f "993-608-757") "608"))
(constraint (= (f "993-608-757") "608"))
(constraint (= (f "107-652-845") "652"))
(constraint (= (f "107-652-845") "652"))
(constraint (= (f "107-652-845") "652"))
(constraint (= (f "206-805-793") "805"))
(constraint (= (f "206-805-793") "805"))
(constraint (= (f "206-805-793") "805"))
(constraint (= (f "198-857-684") "857"))
(constraint (= (f "198-857-684") "857"))
(constraint (= (f "198-857-684") "857"))
(constraint (= (f "912-827-430") "827"))
(constraint (= (f "912-827-430") "827"))
(constraint (= (f "912-827-430") "827"))
(constraint (= (f "560-951-766") "951"))
(constraint (= (f "560-951-766") "951"))
(constraint (= (f "560-951-766") "951"))
(constraint (= (f "142-178-290") "178"))
(constraint (= (f "142-178-290") "178"))
(constraint (= (f "142-178-290") "178"))
(constraint (= (f "732-196-946") "196"))
(constraint (= (f "732-196-946") "196"))
(constraint (= (f "732-196-946") "196"))
(constraint (= (f "963-875-745") "875"))
(constraint (= (f "963-875-745") "875"))
(constraint (= (f "963-875-745") "875"))
(constraint (= (f "881-865-867") "865"))
(constraint (= (f "881-865-867") "865"))
(constraint (= (f "881-865-867") "865"))
(constraint (= (f "234-686-715") "686"))
(constraint (= (f "234-686-715") "686"))
(constraint (= (f "234-686-715") "686"))
(constraint (= (f "720-330-583") "330"))
(constraint (= (f "720-330-583") "330"))
(constraint (= (f "720-330-583") "330"))
(constraint (= (f "593-065-126") "065"))
(constraint (= (f "593-065-126") "065"))
(constraint (= (f "593-065-126") "065"))
(constraint (= (f "671-778-064") "778"))
(constraint (= (f "671-778-064") "778"))
(constraint (= (f "671-778-064") "778"))
(constraint (= (f "252-029-036") "029"))
(constraint (= (f "252-029-036") "029"))
(constraint (= (f "252-029-036") "029"))
(constraint (= (f "700-322-036") "322"))
(constraint (= (f "700-322-036") "322"))
(constraint (= (f "700-322-036") "322"))
(constraint (= (f "882-587-473") "587"))
(constraint (= (f "882-587-473") "587"))
(constraint (= (f "882-587-473") "587"))
(constraint (= (f "964-134-953") "134"))
(constraint (= (f "964-134-953") "134"))
(constraint (= (f "964-134-953") "134"))
(constraint (= (f "038-300-876") "300"))
(constraint (= (f "038-300-876") "300"))
(constraint (= (f "038-300-876") "300"))
(constraint (= (f "158-894-947") "894"))
(constraint (= (f "158-894-947") "894"))
(constraint (= (f "158-894-947") "894"))
(constraint (= (f "757-454-374") "454"))
(constraint (= (f "757-454-374") "454"))
(constraint (= (f "757-454-374") "454"))
(constraint (= (f "872-513-190") "513"))
(constraint (= (f "872-513-190") "513"))
(constraint (= (f "872-513-190") "513"))
(constraint (= (f "566-086-726") "086"))
(constraint (= (f "566-086-726") "086"))
(constraint (= (f "566-086-726") "086"))
(constraint (= (f "938-242-504") "242"))
(constraint (= (f "308-916-545") "916"))
(constraint (= (f "623-599-749") "599"))
(constraint (= (f "981-424-843") "424"))
(constraint (= (f "118-980-214") "980"))
(constraint (= (f "244-655-094") "655"))
(constraint (= (f "830-941-991") "941"))
(constraint (= (f "911-186-562") "186"))
(constraint (= (f "002-500-200") "500"))
(constraint (= (f "113-860-034") "860"))
(constraint (= (f "457-622-959") "622"))
(constraint (= (f "986-722-311") "722"))
(constraint (= (f "110-170-771") "170"))
(constraint (= (f "469-610-118") "610"))
(constraint (= (f "817-925-247") "925"))
(constraint (= (f "256-899-439") "899"))
(constraint (= (f "886-911-726") "911"))
(constraint (= (f "562-950-358") "950"))
(constraint (= (f "693-049-588") "049"))
(constraint (= (f "840-503-234") "503"))
(constraint (= (f "698-815-340") "815"))
(constraint (= (f "498-808-434") "808"))
(constraint (= (f "329-545-000") "545"))
(constraint (= (f "380-281-597") "281"))
(constraint (= (f "332-395-493") "395"))
(constraint (= (f "251-903-028") "903"))
(constraint (= (f "176-090-894") "090"))
(constraint (= (f "336-611-100") "611"))
(constraint (= (f "416-390-647") "390"))
(constraint (= (f "019-430-596") "430"))
(constraint (= (f "960-659-771") "659"))
(constraint (= (f "475-505-007") "505"))
(constraint (= (f "424-069-886") "069"))
(constraint (= (f "941-102-117") "102"))
(constraint (= (f "331-728-008") "728"))
(constraint (= (f "487-726-198") "726"))
(constraint (= (f "612-419-942") "419"))
(constraint (= (f "594-741-346") "741"))
(constraint (= (f "320-984-742") "984"))
(constraint (= (f "060-919-361") "919"))
(constraint (= (f "275-536-998") "536"))
(constraint (= (f "548-835-065") "835"))
(constraint (= (f "197-485-507") "485"))
(constraint (= (f "455-776-949") "776"))
(constraint (= (f "085-421-340") "421"))
(constraint (= (f "785-713-099") "713"))
(constraint (= (f "426-712-861") "712"))
(constraint (= (f "386-994-906") "994"))
(constraint (= (f "918-304-840") "304"))
(constraint (= (f "247-153-598") "153"))
(constraint (= (f "075-497-069") "497"))
(constraint (= (f "140-726-583") "726"))
(constraint (= (f "049-413-248") "413"))
(constraint (= (f "977-386-462") "386"))
(constraint (= (f "058-272-455") "272"))
(constraint (= (f "428-629-927") "629"))
(constraint (= (f "449-122-191") "122"))
(constraint (= (f "568-759-670") "759"))
(constraint (= (f "312-846-053") "846"))
(constraint (= (f "943-037-297") "037"))
(constraint (= (f "014-270-177") "270"))
(constraint (= (f "658-877-878") "877"))
(constraint (= (f "888-594-038") "594"))
(constraint (= (f "232-253-254") "253"))
(constraint (= (f "308-722-292") "722"))
(constraint (= (f "342-145-742") "145"))
(constraint (= (f "568-181-515") "181"))
(constraint (= (f "300-140-756") "140"))
(constraint (= (f "099-684-216") "684"))
(constraint (= (f "575-296-621") "296"))
(constraint (= (f "994-443-794") "443"))
(constraint (= (f "400-334-692") "334"))
(constraint (= (f "684-711-883") "711"))
(constraint (= (f "539-636-358") "636"))
(constraint (= (f "009-878-919") "878"))
(constraint (= (f "919-545-701") "545"))
(constraint (= (f "546-399-239") "399"))
(constraint (= (f "993-608-757") "608"))
(constraint (= (f "107-652-845") "652"))
(constraint (= (f "206-805-793") "805"))
(constraint (= (f "198-857-684") "857"))
(constraint (= (f "912-827-430") "827"))
(constraint (= (f "560-951-766") "951"))
(constraint (= (f "142-178-290") "178"))
(constraint (= (f "732-196-946") "196"))
(constraint (= (f "963-875-745") "875"))
(constraint (= (f "881-865-867") "865"))
(constraint (= (f "234-686-715") "686"))
(constraint (= (f "720-330-583") "330"))
(constraint (= (f "593-065-126") "065"))
(constraint (= (f "671-778-064") "778"))
(constraint (= (f "252-029-036") "029"))
(constraint (= (f "700-322-036") "322"))
(constraint (= (f "882-587-473") "587"))
(constraint (= (f "964-134-953") "134"))
(constraint (= (f "038-300-876") "300"))
(constraint (= (f "158-894-947") "894"))
(constraint (= (f "757-454-374") "454"))
(constraint (= (f "872-513-190") "513"))
(constraint (= (f "566-086-726") "086"))
(check-synth)
